20 90
0 1 45.4
0 2 24.1
0 3 55.3
0 4 49.0
0 5 64.9
0 6 44.0
0 7 21.2
0 8 40.1
0 9 56.0
0 10 22.1
0 11 61.7
0 12 33.5
0 13 21.0
0 14 45.4
0 15 25.8
0 16 32.9
0 17 35.6
0 18 7.4
0 19 39.4
1 2 45.8
1 3 24.9
1 4 47.1
1 5 56.5
1 6 62.1
1 7 59.4
1 8 14.4
1 9 75.3
1 10 34.3
1 11 31.2
1 12 30.4
1 13 25.5
1 14 71.8
1 15 41.1
1 16 56.0
1 17 56.5
1 18 41.5
1 19 72.7
2 3 43.5
2 4 68.2
2 5 83.4
2 6 67.5
2 7 18.0
2 8 48.0
2 9 79.9
2 10 40.4
2 11 48.3
2 12 18.9
2 13 31.6
2 14 69.6
2 15 46.8
2 16 56.6
2 17 59.1
2 18 17.5
2 19 63.2
3 4 71.3
3 5 81.4
3 6 83.6
3 7 61.0
3 8 38.7
3 9 97.2
3 10 53.2
3 11 7.0
3 12 24.7
3 13 41.3
3 14 91.7
3 15 61.1
3 16 75.8
3 17 77.0
3 18 48.9
3 19 90.3
4 5 16.0
4 6 23.1
4 7 70.2
4 8 32.7
4 9 32.8
4 10 27.9
4 11 78.0
4 12 64.7
4 13 37.7
4 14 36.0
4 15 23.3
4 16 26.3
4 17 24.1
4 18 52.4
4 19 43.8
5 6 34.2
5 7 86.1
5 8 43.1
5 9 39.2
5 10 43.5
5 11 87.6
5 12 78.3
5 13 52.3
5 14 46.6
5 15 39.2
5 16 40.6
5 17 38.0
5 18 68.0
5 19 56.2
6 7 63.4
6 8 48.2
6 9 13.6
6 10 31.0
6 11 90.6
6 12 70.4
6 13 43.5
6 14 12.9
6 15 23.0
6 16 11.2
6 17 8.4
6 18 50.0
6 19 22.1
7 8 57.9
7 9 74.1
7 10 43.1
7 11 66.2
7 12 36.3
7 13 39.0
7 14 62.1
7 15 47.0
7 16 52.2
7 17 55.1
7 18 19.7
7 19 53.4
8 9 61.3
8 10 23.3
8 11 45.3
8 12 37.3
8 13 19.2
8 14 58.6
8 15 28.7
8 16 43.2
8 17 43.3
8 18 38.4
8 19 60.8
9 10 44.6
9 11 104.2
9 12 83.8
9 13 57.1
9 14 13.2
9 15 36.6
9 16 23.5
9 17 21.3
9 18 62.5
9 19 24.7
10 11 60.2
10 12 39.7
10 13 12.5
10 14 38.4
10 15 8.0
10 16 22.6
10 17 23.8
10 18 24.5
10 19 38.4
11 12 30.0
11 13 48.3
11 14 98.7
11 15 68.1
11 16 82.8
11 17 84.0
11 18 55.1
11 19 97.2
12 13 27.6
12 14 75.7
12 15 47.5
12 16 60.6
12 17 62.6
12 18 26.3
12 19 71.8
13 14 50.4
13 15 20.4
13 16 34.7
13 17 36.1
13 18 19.4
13 19 49.1
14 15 30.8
14 16 15.9
14 17 15.3
14 18 52.4
14 19 11.6
15 16 15.0
15 17 15.9
15 18 30.0
15 19 32.1
16 17 3.0
16 18 39.1
16 19 18.6
17 18 41.6
17 19 19.9
18 19 46.7
